NAME: ah5
COMMENT : 5 locations in Djibouti
COMMENT : Derived from National Imagery and Mapping Agency data
COMMENT : This file is a corrected version of dj89, where duplications
COMMENT:  have been removed.  Thanks to Jay Muthuswamy and others for
COMMENT:  requesting data sets without duplications.
TYPE: TSP
DIMENSION: 5
EDGE_WEIGHT_TYPE: EUC_2D
NODE_COORD_SECTION
1 11003.611100 42102.500000
2 11108.611100 42373.888900
3 11133.333300 42885.833300
4 11297.500000 42853.333300
5 11310.277800 42929.444400